slab-pt111 
1.0 
        8.4899997711         0.0000000000         0.0000000000 
        4.2449998856         7.3525554799         0.0000000000 
        0.0000000000         0.0000000000        25.0000000000 
   Pt 
   27 
Direct 
     0.006663528         0.997492492         0.082663290 
     0.000521697         0.336543232         0.080099314 
     0.005466287         0.664497674         0.079137705 
     0.333856165         0.998869538         0.077634916 
     0.334888101         0.324505597         0.079542175 
     0.334581316         0.658504605         0.086563498 
     0.667036951         0.005466488         0.073986299 
     0.669289172         0.338651121         0.087669782 
     0.667903304         0.662064791         0.079864971 
     0.119142771         0.107272796         0.169080883 
     0.110557854         0.452726841         0.168670118 
     0.102894939         0.774473071         0.173215792 
     0.445798576         0.116315737         0.169163182 
     0.442165822         0.439048529         0.174396932 
     0.437628865         0.770166159         0.168667227 
     0.774587274         0.105807371         0.174271643 
     0.783584952         0.436009407         0.173507273 
     0.785915554         0.771487415         0.172938839 
     0.222130090         0.225648865         0.257908911 
     0.213626161         0.562005401         0.268385768 
     0.220870987         0.888177812         0.261690706 
     0.557420194         0.219741940         0.256159335 
     0.555504680         0.563429475         0.260394722 
     0.550366044         0.886049271         0.265101939 
     0.878893554         0.214194626         0.264638543 
     0.887896359         0.557410359         0.270572752 
     0.888455927         0.885109484         0.262081265