slab-pt111 
1.0 
        8.4899997711         0.0000000000         0.0000000000 
        4.2449998856         7.3525554799         0.0000000000 
        0.0000000000         0.0000000000        25.0000000000 
   Pt 
   27 
Direct 
     0.001762321         0.998047650         0.080491915 
     0.001887487         0.331347734         0.080466107 
     0.001813437         0.664667308         0.080472529 
     0.335080028         0.998123407         0.080473177 
     0.335131705         0.331413895         0.080480568 
     0.335153550         0.664781034         0.080469668 
     0.668451726         0.998044491         0.080477387 
     0.668481946         0.331455767         0.080472335 
     0.668559313         0.664692283         0.080480225 
     0.110985793         0.109551027         0.171785563 
     0.111008994         0.442953557         0.171790078 
     0.110996664         0.776247025         0.171779588 
     0.444282383         0.109575853         0.171783373 
     0.444260418         0.442963362         0.171769798 
     0.444367290         0.776289523         0.171737522 
     0.777635515         0.109633319         0.171790898 
     0.777793884         0.442909002         0.171796143 
     0.777669430         0.776287138         0.171781719 
     0.220234841         0.221408457         0.263072968 
     0.220300481         0.554729819         0.263103038 
     0.220258161         0.888045967         0.263084829 
     0.553577840         0.221359968         0.263051420 
     0.553608060         0.554722667         0.275039881 
     0.553578556         0.888020337         0.263091862 
     0.886944354         0.221427798         0.263090938 
     0.886895120         0.554858267         0.263104260 
     0.886927843         0.888113618         0.263070077