slab-pt100 
1.0 
        2.7882300000         0.0000000000         0.0000000000 
        0.0000000000         2.7882300000         0.0000000000 
        0.0000000000         0.0000000000        35.0000000000 
   Pt 
    3 
Cartesian 
     0.000000000         0.000000000         1.000000000 
     1.394115000         1.394115000         2.971575000 
     0.000000000         0.000000000         4.943150000 