slab-pt111 
1.0 
        8.4899997711         0.0000000000         0.0000000000 
        4.2449998856         7.3525554799         0.0000000000 
        0.0000000000         0.0000000000        25.0000000000 
   Pt 
   27 
Direct 
     0.000000000         0.000000000         0.080872335 
     0.000000000         0.333333343         0.080872335 
     0.000000000         0.666666687         0.080872335 
     0.333333343         0.000000000         0.080872335 
     0.333333313         0.333333343         0.080872335 
     0.333333313         0.666666687         0.080872335 
     0.666666687         0.000000000         0.080872335 
     0.666666687         0.333333343         0.080872335 
     0.666666627         0.666666687         0.080872335 
     0.111111112         0.111111112         0.172000006 
     0.111111112         0.444444448         0.172000006 
     0.111111119         0.777777791         0.172000006 
     0.444444448         0.111111112         0.172000006 
     0.444444448         0.444444448         0.172000006 
     0.444444448         0.777777791         0.172000006 
     0.777777791         0.111111112         0.172000006 
     0.777777791         0.444444448         0.172000006 
     0.777777791         0.777777791         0.172000006 
     0.222222224         0.222222224         0.263127685 
     0.222222224         0.555555582         0.263127685 
     0.222222224         0.888888896         0.263127685 
     0.555555582         0.222222224         0.263127685 
     0.555555642         0.555555582         0.263127685 
     0.555555522         0.888888896         0.263127685 
     0.888888896         0.222222224         0.263127685 
     0.888888896         0.555555582         0.263127685 
     0.888888896         0.888888896         0.263127685